Route #1: 12 19 40 41 13 25 14 
Route #2: 17 37 33 10 39 30 34 9 11 16 
Route #3: 38 5 44 42 15 4 18 24 6 
Route #4: 8 23 43 7 26 31 28 22 1 27 
Route #5: 32 20 35 36 3 29 21 2 
cost 621.159
execution_time 13.987
